217 85
277 185
54 161
91 255
76 114
162 148
277 107
272 86
66 113
65 105
111 295
49 126
177 293
138 290
188 289
168 217
142 132
246 149
135 207
19 59
233 45
192 266
217 112
224 222
230 204
65 259
204 28
133 216
174 149
286 295